language ESSENCE' 1.0

letting bibd_RelationAsMatrix be
        [[true, true, true, true, true, true, true, true, true, true, true, true, true, true, true, true, true, true,
          true, true, true, true, true, true, true, true, true, true, true, true;
              int(1..30)],
         [true, true, true, true, true, true, true, true, true, true, true, true, true, true, true, true, true, true,
          true, true, true, true, true, true, true, true, true, true, true, true;
              int(1..30)],
         [true, true, true, true, true, true, true, true, true, true, true, true, true, true, true, true, true, true,
          true, true, true, true, true, true, true, true, true, true, true, true;
              int(1..30)],
         [true, true, true, true, true, true, true, true, true, true, true, true, true, true, true, true, true, true,
          true, true, true, true, true, true, true, true, true, true, true, true;
              int(1..30)],
         [true, true, true, true, true, true, true, true, true, true, true, true, true, true, true, true, true, true,
          true, true, true, true, true, true, true, true, true, true, true, true;
              int(1..30)],
         [true, true, true, true, true, true, true, true, true, true, true, true, true, true, true, true, true, true,
          true, true, true, true, true, true, true, true, true, true, true, true;
              int(1..30)],
         [true, true, true, true, true, true, true, true, true, true, true, true, true, true, true, true, true, true,
          true, true, true, true, true, true, true, true, true, true, true, true;
              int(1..30)],
         [true, true, true, true, true, true, true, true, true, true, true, true, true, true, true, true, true, true,
          true, true, true, true, true, true, true, true, true, true, true, true;
              int(1..30)],
         [true, true, true, true, true, true, true, true, true, true, true, true, true, true, true, true, true, true,
          true, true, true, true, true, true, true, true, true, true, true, true;
              int(1..30)],
         [true, true, true, true, true, true, true, true, true, true, true, true, true, true, true, true, true, true,
          true, true, true, true, true, true, true, true, true, true, true, true;
              int(1..30)],
         [true, true, true, true, true, true, true, true, true, true, true, true, true, true, true, true, true, true,
          true, true, true, true, true, true, true, true, true, true, true, true;
              int(1..30)],
         [true, true, true, true, true, true, true, true, true, true, true, true, true, true, true, true, true, true,
          true, true, true, true, true, true, true, true, true, true, true, true;
              int(1..30)],
         [true, true, true, true, true, true, true, true, true, true, true, true, true, true, true, true, true, true,
          true, true, true, true, true, true, true, true, true, true, true, true;
              int(1..30)],
         [true, true, true, true, true, true, true, true, true, true, true, true, true, true, true, true, true, true,
          true, true, true, true, true, true, true, true, true, true, true, true;
              int(1..30)],
         [true, true, true, true, true, true, true, true, true, true, true, true, true, true, true, true, true, true,
          true, true, true, true, true, true, true, true, true, true, true, true;
              int(1..30)],
         [true, true, true, true, true, true, true, true, true, true, true, true, true, true, true, true, true, true,
          true, true, true, true, true, true, true, true, true, true, true, true;
              int(1..30)],
         [true, true, true, true, true, true, true, true, true, true, true, true, true, true, true, true, true, true,
          true, true, true, true, true, true, true, true, true, true, true, true;
              int(1..30)],
         [true, true, true, true, true, true, true, true, true, true, true, true, true, true, true, true, true, true,
          true, true, true, true, true, true, true, true, true, true, true, true;
              int(1..30)],
         [true, true, true, true, true, true, true, true, true, true, true, true, true, true, true, true, true, true,
          true, true, true, true, true, true, true, true, true, true, true, true;
              int(1..30)],
         [true, true, true, true, true, true, true, true, true, true, true, true, true, true, true, true, true, true,
          true, true, true, true, true, true, true, true, true, true, true, true;
              int(1..30)],
         [true, true, true, true, true, true, true, true, true, true, true, true, true, true, true, true, true, true,
          true, true, true, true, true, true, true, true, true, true, true, true;
              int(1..30)],
         [true, true, true, true, true, true, true, true, true, true, true, true, true, true, true, true, true, true,
          true, true, true, true, true, true, true, true, true, true, true, true;
              int(1..30)],
         [true, true, true, true, true, true, true, true, true, true, true, true, true, true, true, true, true, true,
          true, true, true, true, true, true, true, true, true, true, true, true;
              int(1..30)],
         [true, true, true, true, true, true, true, true, true, true, true, true, true, true, true, true, true, true,
          true, true, true, true, true, true, true, true, true, true, true, true;
              int(1..30)],
         [true, true, true, true, true, true, true, true, true, true, true, true, true, true, true, true, true, true,
          true, true, true, true, true, true, true, true, true, true, true, true;
              int(1..30)],
         [true, true, true, true, true, true, true, true, true, true, true, true, true, true, true, true, true, true,
          true, true, true, true, true, true, true, true, true, true, true, true;
              int(1..30)],
         [true, true, true, true, true, true, true, true, true, true, true, true, true, true, true, true, true, true,
          true, true, true, true, true, true, true, true, true, true, true, true;
              int(1..30)],
         [true, true, true, true, true, true, true, true, true, true, true, true, true, true, true, true, true, true,
          true, true, true, true, true, true, true, true, true, true, true, true;
              int(1..30)],
         [true, true, true, true, true, true, true, true, true, true, true, true, true, true, true, true, true, true,
          true, true, true, true, true, true, true, true, true, true, true, true;
              int(1..30)],
         [true, true, true, true, true, true, true, true, true, true, true, true, true, true, true, true, true, true,
          true, true, true, true, true, true, true, true, true, true, true, true;
              int(1..30)];
             int(1..30)]
$ Visualisation for bibd_RelationAsMatrix
$ T T T T T T T T T T T T T T T T T T T T T T T T T T T T T T
$ T T T T T T T T T T T T T T T T T T T T T T T T T T T T T T
$ T T T T T T T T T T T T T T T T T T T T T T T T T T T T T T
$ T T T T T T T T T T T T T T T T T T T T T T T T T T T T T T
$ T T T T T T T T T T T T T T T T T T T T T T T T T T T T T T
$ T T T T T T T T T T T T T T T T T T T T T T T T T T T T T T
$ T T T T T T T T T T T T T T T T T T T T T T T T T T T T T T
$ T T T T T T T T T T T T T T T T T T T T T T T T T T T T T T
$ T T T T T T T T T T T T T T T T T T T T T T T T T T T T T T
$ T T T T T T T T T T T T T T T T T T T T T T T T T T T T T T
$ T T T T T T T T T T T T T T T T T T T T T T T T T T T T T T
$ T T T T T T T T T T T T T T T T T T T T T T T T T T T T T T
$ T T T T T T T T T T T T T T T T T T T T T T T T T T T T T T
$ T T T T T T T T T T T T T T T T T T T T T T T T T T T T T T
$ T T T T T T T T T T T T T T T T T T T T T T T T T T T T T T
$ T T T T T T T T T T T T T T T T T T T T T T T T T T T T T T
$ T T T T T T T T T T T T T T T T T T T T T T T T T T T T T T
$ T T T T T T T T T T T T T T T T T T T T T T T T T T T T T T
$ T T T T T T T T T T T T T T T T T T T T T T T T T T T T T T
$ T T T T T T T T T T T T T T T T T T T T T T T T T T T T T T
$ T T T T T T T T T T T T T T T T T T T T T T T T T T T T T T
$ T T T T T T T T T T T T T T T T T T T T T T T T T T T T T T
$ T T T T T T T T T T T T T T T T T T T T T T T T T T T T T T
$ T T T T T T T T T T T T T T T T T T T T T T T T T T T T T T
$ T T T T T T T T T T T T T T T T T T T T T T T T T T T T T T
$ T T T T T T T T T T T T T T T T T T T T T T T T T T T T T T
$ T T T T T T T T T T T T T T T T T T T T T T T T T T T T T T
$ T T T T T T T T T T T T T T T T T T T T T T T T T T T T T T
$ T T T T T T T T T T T T T T T T T T T T T T T T T T T T T T
$ T T T T T T T T T T T T T T T T T T T T T T T T T T T T T T

